sat
(
  ;; universe for Person:
  ;;   Person!val!6 Person!val!0 Person!val!4 Person!val!3 Person!val!2 Person!val!1 Person!val!5 
  ;; -----------
  ;; definitions for universe elements:
  (declare-fun Person!val!6 () Person)
  (declare-fun Person!val!0 () Person)
  (declare-fun Person!val!4 () Person)
  (declare-fun Person!val!3 () Person)
  (declare-fun Person!val!2 () Person)
  (declare-fun Person!val!1 () Person)
  (declare-fun Person!val!5 () Person)
  ;; cardinality constraint:
  (forall ((x Person))
          (or (= x Person!val!6)
              (= x Person!val!0)
              (= x Person!val!4)
              (= x Person!val!3)
              (= x Person!val!2)
              (= x Person!val!1)
              (= x Person!val!5)))
  ;; -----------
  (define-fun M ((x!0 Person) (x!1 Person)) bool
    (or (and (= x!0 Person!val!2)
             (not (= x!0 Person!val!3))
             (not (= x!0 Person!val!6))
             (not (= x!0 Person!val!5))
             (not (= x!0 Person!val!4))
             (= x!1 Person!val!4)
             (not (= x!1 Person!val!5))
             (not (= x!1 Person!val!1)))
        (and (= x!0 Person!val!5)
             (not (= x!0 Person!val!4))
             (not (= x!1 Person!val!3))
             (not (= x!1 Person!val!4))
             (not (= x!1 Person!val!5))
             (not (= x!1 Person!val!1)))
        (and (= x!0 Person!val!6)
             (not (= x!0 Person!val!5))
             (not (= x!0 Person!val!4))
             (= x!1 Person!val!5)
             (not (= x!1 Person!val!1)))
        (and (not (= x!0 Person!val!1))
             (not (= x!0 Person!val!2))
             (not (= x!0 Person!val!3))
             (not (= x!0 Person!val!6))
             (not (= x!0 Person!val!5))
             (not (= x!0 Person!val!4))
             (= x!1 Person!val!1))
        (and (= x!0 Person!val!2)
             (not (= x!0 Person!val!3))
             (not (= x!0 Person!val!6))
             (not (= x!0 Person!val!5))
             (not (= x!0 Person!val!4))
             (= x!1 Person!val!3)
             (not (= x!1 Person!val!4))
             (not (= x!1 Person!val!5))
             (not (= x!1 Person!val!1)))))
)
